(set-info :source |printed by MathSAT|)
(declare-fun |!{$(in_main#0)<N>}| () Int)
(declare-fun |!{$(in_main#0)<N>}.next| () Int)
(declare-fun |!{$(in_main#0)<&array>}| () Int)
(declare-fun |!{$(in_main#0)<&array>}.next| () Int)
(declare-fun |!{$(in_main#0)<k>}| () Int)
(declare-fun |!{$(in_main#0)<k>}.next| () Int)
(declare-fun |!{$(in_main#0)<k#1>}| () Int)
(declare-fun |!{$(in_main#0)<k#1>}.next| () Int)
(declare-fun |!{$(in_main#0)<min>}| () Int)
(declare-fun |!{$(in_main#0)<min>}.next| () Int)
(declare-fun |!{%memaddr}| () Int)
(declare-fun |!{%memaddr}.next| () Int)
(declare-fun |!{%mem.0}| () (Array Int Int))
(declare-fun |!{%mem.0}.next| () (Array Int Int))
(declare-fun |!{$(in_main#0)<$(in___VERIFIER_nondet_int#1)<h#<__VERIFIER_nondet_int.return>>>}| () Int)
(declare-fun |!{$(in_main#0)<$(in___VERIFIER_nondet_int#3)<h#<__VERIFIER_nondet_int.return>>>}| () Int)
(declare-fun |!{$(in_main#0)<$(in_rec_array_min#4)<$temp.1>>}| () Int)
(declare-fun |!{$(in_main#0)<$(in_rec_array_min#4)<min>>}| () Int)
(declare-fun |!{$(in_main#0)<$(in_rec_array_min#4)<$tmp>>}| () Int)
(declare-fun |!{$(in_main#0)<$(in_rec_array_min#4)<$(in_rec_array_min#0)<$temp.1>>>}| () Int)
(declare-fun |!{$(in_main#0)<$(in_rec_array_min#4)<$(in_rec_array_min#0)<min>>>}| () Int)
(declare-fun |!{$(in_main#0)<$(in_rec_array_min#4)<$(in_rec_array_min#0)<$tmp>>>}| () Int)
(declare-fun !pc () Int)
(declare-fun !pc.next () Int)
(declare-fun |%{$(in_main#0)<k#1>}#1| () Int)
(declare-fun |%{$(in_main#0)<min>}#1| () Int)
(declare-fun rec_array_min<0> (Int Int) Int)
(declare-fun |%{$(in_main#0)<$(in_rec_array_min#4)<$(in_rec_array_min#0)<$temp.1>>>}#3| () Int)
(declare-fun |%{$(in_main#0)<$(in_rec_array_min#4)<$(in_rec_array_min#0)<min>>>}#3| () Int)
(declare-fun |%{$(in_main#0)<$(in_rec_array_min#4)<$(in_rec_array_min#0)<$tmp>>>}#3| () Int)
(declare-fun |%{$(in_main#0)<$(in_rec_array_min#4)<$(in_rec_array_min#0)<rec_array_min.return>>>}#3| () Int)
(declare-fun |%{$(in_main#0)<$(in_rec_array_min#4)<$temp.1>>}#3| () Int)
(declare-fun |%{$(in_main#0)<$(in_rec_array_min#4)<min>>}#3| () Int)
(declare-fun |%{$(in_main#0)<$(in_rec_array_min#4)<$tmp>>}#3| () Int)
(declare-fun |%{$(in_main#0)<$(in_rec_array_min#4)<rec_array_min.return>>}#3| () Int)
(define-fun .def_54 () Int (! !pc :next !pc.next))
(define-fun .def_57 () Bool (! (= .def_54 2) :init true))
(define-fun .def_282 () Bool (= .def_54 49))
(define-fun .def_142 () Bool (= !pc.next 147))
(define-fun .def_285 () Bool (and .def_142 .def_282))
(define-fun .def_276 () Bool (= |!{$(in_main#0)<min>}.next| |%{$(in_main#0)<$(in_rec_array_min#4)<rec_array_min.return>>}#3|))
(define-fun .def_274 () Bool (= |!{$(in_main#0)<k#1>}.next| 0))
(define-fun .def_10 () Int (! |!{$(in_main#0)<&array>}| :next |!{$(in_main#0)<&array>}.next|))
(define-fun .def_105 () Bool (= .def_10 |!{$(in_main#0)<&array>}.next|))
(define-fun .def_8 () Int (! |!{$(in_main#0)<N>}| :next |!{$(in_main#0)<N>}.next|))
(define-fun .def_103 () Bool (= .def_8 |!{$(in_main#0)<N>}.next|))
(define-fun .def_117 () Bool (and .def_103 .def_105))
(define-fun .def_12 () Int (! |!{$(in_main#0)<k>}| :next |!{$(in_main#0)<k>}.next|))
(define-fun .def_107 () Bool (= .def_12 |!{$(in_main#0)<k>}.next|))
(define-fun .def_118 () Bool (and .def_107 .def_117))
(define-fun .def_275 () Bool (and .def_118 .def_274))
(define-fun .def_277 () Bool (and .def_275 .def_276))
(define-fun .def_18 () Int (! |!{%memaddr}| :next |!{%memaddr}.next|))
(define-fun .def_113 () Bool (= .def_18 |!{%memaddr}.next|))
(define-fun .def_278 () Bool (and .def_113 .def_277))
(define-fun .def_20 () (Array Int Int) (! |!{%mem.0}| :next |!{%mem.0}.next|))
(define-fun .def_85 () Bool (= .def_20 |!{%mem.0}.next|))
(define-fun .def_279 () Bool (and .def_85 .def_278))
(define-fun .def_260 () Bool (= |%{$(in_main#0)<$(in_rec_array_min#4)<$(in_rec_array_min#0)<rec_array_min.return>>>}#3| |%{$(in_main#0)<$(in_rec_array_min#4)<rec_array_min.return>>}#3|))
(define-fun .def_170 () Int (+ .def_8 .def_10))
(define-fun .def_220 () Int (+ .def_170 (- 1)))
(define-fun .def_221 () Int (select .def_20 .def_220))
(define-fun .def_222 () Bool (<= .def_221 |%{$(in_main#0)<$(in_rec_array_min#4)<$(in_rec_array_min#0)<rec_array_min.return>>>}#3|))
(define-fun .def_253 () Bool (not .def_222))
(define-fun .def_167 () Int (+ .def_8 (- 3)))
(define-fun .def_168 () Int (rec_array_min<0> .def_10 .def_167))
(define-fun .def_214 () Bool (= .def_168 |%{$(in_main#0)<$(in_rec_array_min#4)<$(in_rec_array_min#0)<rec_array_min.return>>>}#3|))
(define-fun .def_172 () Int (+ .def_170 (- 2)))
(define-fun .def_173 () Int (select .def_20 .def_172))
(define-fun .def_174 () Bool (<= .def_173 .def_168))
(define-fun .def_207 () Bool (not .def_174))
(define-fun .def_163 () Bool (= .def_8 2))
(define-fun .def_164 () Bool (not .def_163))
(define-fun .def_208 () Bool (and .def_164 .def_207))
(define-fun .def_183 () Bool (= .def_168 |%{$(in_main#0)<$(in_rec_array_min#4)<$(in_rec_array_min#0)<$temp.1>>>}#3|))
(define-fun .def_211 () Bool (and .def_183 .def_208))
(define-fun .def_189 () Bool (= .def_168 |%{$(in_main#0)<$(in_rec_array_min#4)<$(in_rec_array_min#0)<min>>>}#3|))
(define-fun .def_212 () Bool (and .def_189 .def_211))
(define-fun .def_195 () Bool (= .def_168 |%{$(in_main#0)<$(in_rec_array_min#4)<$(in_rec_array_min#0)<$tmp>>>}#3|))
(define-fun .def_213 () Bool (and .def_195 .def_212))
(define-fun .def_215 () Bool (and .def_213 .def_214))
(define-fun .def_201 () Bool (= .def_173 |%{$(in_main#0)<$(in_rec_array_min#4)<$(in_rec_array_min#0)<rec_array_min.return>>>}#3|))
(define-fun .def_177 () Bool (and .def_164 .def_174))
(define-fun .def_185 () Bool (and .def_177 .def_183))
(define-fun .def_191 () Bool (and .def_185 .def_189))
(define-fun .def_197 () Bool (and .def_191 .def_195))
(define-fun .def_203 () Bool (and .def_197 .def_201))
(define-fun .def_160 () Int (select .def_20 .def_10))
(define-fun .def_200 () Bool (= .def_160 |%{$(in_main#0)<$(in_rec_array_min#4)<$(in_rec_array_min#0)<rec_array_min.return>>>}#3|))
(define-fun .def_194 () Bool (= |!{$(in_main#0)<$(in_rec_array_min#4)<$(in_rec_array_min#0)<$tmp>>>}| |%{$(in_main#0)<$(in_rec_array_min#4)<$(in_rec_array_min#0)<$tmp>>>}#3|))
(define-fun .def_188 () Bool (= |!{$(in_main#0)<$(in_rec_array_min#4)<$(in_rec_array_min#0)<min>>>}| |%{$(in_main#0)<$(in_rec_array_min#4)<$(in_rec_array_min#0)<min>>>}#3|))
(define-fun .def_182 () Bool (= |!{$(in_main#0)<$(in_rec_array_min#4)<$(in_rec_array_min#0)<$temp.1>>>}| |%{$(in_main#0)<$(in_rec_array_min#4)<$(in_rec_array_min#0)<$temp.1>>>}#3|))
(define-fun .def_184 () Bool (and .def_163 .def_182))
(define-fun .def_190 () Bool (and .def_184 .def_188))
(define-fun .def_196 () Bool (and .def_190 .def_194))
(define-fun .def_202 () Bool (and .def_196 .def_200))
(define-fun .def_204 () Bool (or .def_202 .def_203))
(define-fun .def_216 () Bool (or .def_204 .def_215))
(define-fun .def_254 () Bool (and .def_216 .def_253))
(define-fun .def_159 () Bool (= .def_8 1))
(define-fun .def_161 () Bool (not .def_159))
(define-fun .def_255 () Bool (and .def_161 .def_254))
(define-fun .def_230 () Bool (= |%{$(in_main#0)<$(in_rec_array_min#4)<$(in_rec_array_min#0)<rec_array_min.return>>>}#3| |%{$(in_main#0)<$(in_rec_array_min#4)<$temp.1>>}#3|))
(define-fun .def_257 () Bool (and .def_230 .def_255))
(define-fun .def_236 () Bool (= |%{$(in_main#0)<$(in_rec_array_min#4)<$(in_rec_array_min#0)<rec_array_min.return>>>}#3| |%{$(in_main#0)<$(in_rec_array_min#4)<min>>}#3|))
(define-fun .def_258 () Bool (and .def_236 .def_257))
(define-fun .def_242 () Bool (= |%{$(in_main#0)<$(in_rec_array_min#4)<$(in_rec_array_min#0)<rec_array_min.return>>>}#3| |%{$(in_main#0)<$(in_rec_array_min#4)<$tmp>>}#3|))
(define-fun .def_259 () Bool (and .def_242 .def_258))
(define-fun .def_261 () Bool (and .def_259 .def_260))
(define-fun .def_248 () Bool (= .def_221 |%{$(in_main#0)<$(in_rec_array_min#4)<rec_array_min.return>>}#3|))
(define-fun .def_224 () Bool (and .def_216 .def_222))
(define-fun .def_225 () Bool (and .def_161 .def_224))
(define-fun .def_232 () Bool (and .def_225 .def_230))
(define-fun .def_238 () Bool (and .def_232 .def_236))
(define-fun .def_244 () Bool (and .def_238 .def_242))
(define-fun .def_250 () Bool (and .def_244 .def_248))
(define-fun .def_247 () Bool (= .def_160 |%{$(in_main#0)<$(in_rec_array_min#4)<rec_array_min.return>>}#3|))
(define-fun .def_241 () Bool (= |!{$(in_main#0)<$(in_rec_array_min#4)<$tmp>>}| |%{$(in_main#0)<$(in_rec_array_min#4)<$tmp>>}#3|))
(define-fun .def_235 () Bool (= |!{$(in_main#0)<$(in_rec_array_min#4)<min>>}| |%{$(in_main#0)<$(in_rec_array_min#4)<min>>}#3|))
(define-fun .def_229 () Bool (= |!{$(in_main#0)<$(in_rec_array_min#4)<$temp.1>>}| |%{$(in_main#0)<$(in_rec_array_min#4)<$temp.1>>}#3|))
(define-fun .def_231 () Bool (and .def_159 .def_229))
(define-fun .def_237 () Bool (and .def_231 .def_235))
(define-fun .def_243 () Bool (and .def_237 .def_241))
(define-fun .def_249 () Bool (and .def_243 .def_247))
(define-fun .def_251 () Bool (or .def_249 .def_250))
(define-fun .def_262 () Bool (or .def_251 .def_261))
(define-fun .def_280 () Bool (and .def_262 .def_279))
(define-fun .def_153 () Bool (<= .def_8 .def_12))
(define-fun .def_281 () Bool (and .def_153 .def_280))
(define-fun .def_286 () Bool (and .def_281 .def_285))
(define-fun .def_89 () Bool (= !pc.next 49))
(define-fun .def_283 () Bool (and .def_89 .def_282))
(define-fun .def_155 () Int (+ .def_10 .def_12))
(define-fun .def_156 () (Array Int Int) (store .def_20 .def_155 |!{$(in_main#0)<$(in___VERIFIER_nondet_int#3)<h#<__VERIFIER_nondet_int.return>>>}|))
(define-fun .def_271 () Bool (= |!{%mem.0}.next| .def_156))
(define-fun .def_264 () Int (* (- 1) |!{$(in_main#0)<k>}.next|))
(define-fun .def_265 () Int (+ .def_12 .def_264))
(define-fun .def_266 () Bool (= .def_265 (- 1)))
(define-fun .def_267 () Bool (and .def_117 .def_266))
(define-fun .def_14 () Int (! |!{$(in_main#0)<k#1>}| :next |!{$(in_main#0)<k#1>}.next|))
(define-fun .def_109 () Bool (= .def_14 |!{$(in_main#0)<k#1>}.next|))
(define-fun .def_268 () Bool (and .def_109 .def_267))
(define-fun .def_16 () Int (! |!{$(in_main#0)<min>}| :next |!{$(in_main#0)<min>}.next|))
(define-fun .def_111 () Bool (= .def_16 |!{$(in_main#0)<min>}.next|))
(define-fun .def_269 () Bool (and .def_111 .def_268))
(define-fun .def_270 () Bool (and .def_113 .def_269))
(define-fun .def_272 () Bool (and .def_270 .def_271))
(define-fun .def_154 () Bool (not .def_153))
(define-fun .def_273 () Bool (and .def_154 .def_272))
(define-fun .def_284 () Bool (and .def_273 .def_283))
(define-fun .def_287 () Bool (or .def_284 .def_286))
(define-fun .def_146 () Bool (= !pc.next 0))
(define-fun .def_137 () Bool (= .def_54 147))
(define-fun .def_147 () Bool (and .def_137 .def_146))
(define-fun .def_92 () Bool (<= .def_8 .def_14))
(define-fun .def_129 () Bool (and .def_92 .def_103))
(define-fun .def_130 () Bool (and .def_105 .def_129))
(define-fun .def_131 () Bool (and .def_107 .def_130))
(define-fun .def_132 () Bool (and .def_109 .def_131))
(define-fun .def_133 () Bool (and .def_111 .def_132))
(define-fun .def_134 () Bool (and .def_113 .def_133))
(define-fun .def_135 () Bool (and .def_85 .def_134))
(define-fun .def_148 () Bool (and .def_135 .def_147))
(define-fun .def_143 () Bool (and .def_137 .def_142))
(define-fun .def_120 () Int (* (- 1) |!{$(in_main#0)<k#1>}.next|))
(define-fun .def_121 () Int (+ .def_14 .def_120))
(define-fun .def_122 () Bool (= .def_121 (- 1)))
(define-fun .def_123 () Bool (and .def_118 .def_122))
(define-fun .def_124 () Bool (and .def_111 .def_123))
(define-fun .def_125 () Bool (and .def_113 .def_124))
(define-fun .def_126 () Bool (and .def_85 .def_125))
(define-fun .def_94 () Int (+ .def_10 .def_14))
(define-fun .def_95 () Int (select .def_20 .def_94))
(define-fun .def_96 () Bool (<= .def_16 .def_95))
(define-fun .def_97 () Int (ite .def_96 1 0))
(define-fun .def_98 () Bool (= .def_97 0))
(define-fun .def_99 () Bool (not .def_98))
(define-fun .def_127 () Bool (and .def_99 .def_126))
(define-fun .def_93 () Bool (not .def_92))
(define-fun .def_128 () Bool (and .def_93 .def_127))
(define-fun .def_144 () Bool (and .def_128 .def_143))
(define-fun .def_139 () Bool (= !pc.next 167))
(define-fun .def_140 () Bool (and .def_137 .def_139))
(define-fun .def_104 () Bool (and .def_98 .def_103))
(define-fun .def_106 () Bool (and .def_104 .def_105))
(define-fun .def_108 () Bool (and .def_106 .def_107))
(define-fun .def_110 () Bool (and .def_108 .def_109))
(define-fun .def_112 () Bool (and .def_110 .def_111))
(define-fun .def_114 () Bool (and .def_112 .def_113))
(define-fun .def_115 () Bool (and .def_85 .def_114))
(define-fun .def_116 () Bool (and .def_93 .def_115))
(define-fun .def_141 () Bool (and .def_116 .def_140))
(define-fun .def_145 () Bool (or .def_141 .def_144))
(define-fun .def_149 () Bool (or .def_145 .def_148))
(define-fun .def_90 () Bool (and .def_57 .def_89))
(define-fun .def_83 () Bool (= |!{%memaddr}.next| 2))
(define-fun .def_81 () Bool (= |!{$(in_main#0)<min>}.next| |%{$(in_main#0)<min>}#1|))
(define-fun .def_79 () Bool (= |!{$(in_main#0)<k#1>}.next| |%{$(in_main#0)<k#1>}#1|))
(define-fun .def_77 () Bool (= |!{$(in_main#0)<k>}.next| 0))
(define-fun .def_75 () Bool (= |!{$(in_main#0)<&array>}.next| 1))
(define-fun .def_74 () Bool (= |!{$(in_main#0)<N>}.next| |!{$(in_main#0)<$(in___VERIFIER_nondet_int#1)<h#<__VERIFIER_nondet_int.return>>>}|))
(define-fun .def_76 () Bool (and .def_74 .def_75))
(define-fun .def_78 () Bool (and .def_76 .def_77))
(define-fun .def_80 () Bool (and .def_78 .def_79))
(define-fun .def_82 () Bool (and .def_80 .def_81))
(define-fun .def_84 () Bool (and .def_82 .def_83))
(define-fun .def_86 () Bool (and .def_84 .def_85))
(define-fun .def_69 () Bool (<= |!{$(in_main#0)<$(in___VERIFIER_nondet_int#1)<h#<__VERIFIER_nondet_int.return>>>}| 0))
(define-fun .def_70 () Bool (not .def_69))
(define-fun .def_71 () Int (ite .def_70 1 0))
(define-fun .def_72 () Bool (= .def_71 0))
(define-fun .def_73 () Bool (not .def_72))
(define-fun .def_87 () Bool (and .def_73 .def_86))
(define-fun .def_91 () Bool (and .def_87 .def_90))
(define-fun .def_150 () Bool (or .def_91 .def_149))
(define-fun .def_288 () Bool (! (or .def_150 .def_287) :trans true))
(define-fun .def_151 () Bool (= .def_54 167))
(define-fun .def_289 () Bool (! (not .def_151) :invar-property 0 :invar-property-name ||))
(assert true)
